
Gurobi 6.5.0 (linux64) logging started Thu May 12 01:00:35 2016

Changed value of parameter MIPGapAbs to 0.5
   Prev: 1e-10  Min: 0.0  Max: 1e+100  Default: 1e-10
Optimize a model with 50387 rows, 404875 columns and 465071 nonzeros
Coefficient statistics:
  Matrix range    [2e-04, 2e+00]
  Objective range [1e+00, 2e+02]
  Bounds range    [1e+00, 1e+00]
  RHS range       [2e-01, 1e+00]
Presolve removed 44444 rows and 242171 columns (presolve time = 5s) ...
Presolve removed 45247 rows and 242974 columns
Presolve time: 7.66s
Presolved: 5140 rows, 161901 columns, 323773 nonzeros
Variable types: 4105 continuous, 157796 integer (157796 binary)
Found heuristic solution: objective 789.9221522

Root simplex log...

Iteration    Objective       Primal Inf.    Dual Inf.      Time
       0    3.9252925e+03   6.202451e+03   0.000000e+00      9s
    2968    2.3939999e+03   5.272474e+03   0.000000e+00     10s
   13834    1.4093728e+03   0.000000e+00   0.000000e+00     11s

Root relaxation: objective 1.409373e+03, 13834 iterations, 2.12 seconds

    Nodes    |    Current Node    |     Objective Bounds      |     Work
 Expl Unexpl |  Obj  Depth IntInf | Incumbent    BestBd   Gap | It/Node Time

     0     0 1409.37281    0   28  789.92215 1409.37281  78.4%     -   11s
H    0     0                    1392.2572247 1409.37281  1.23%     -   11s
H    0     0                    1408.5846342 1409.37281  0.06%     -   18s
     0     0 1409.15339    0   33 1408.58463 1409.15339  0.04%     -   24s
     0     0 1409.14175    0   36 1408.58463 1409.14175  0.04%     -   25s
     0     0 1409.13970    0   39 1408.58463 1409.13970  0.04%     -   26s
     0     0 1409.13970    0   41 1408.58463 1409.13970  0.04%     -   26s
     0     0 1409.13970    0   39 1408.58463 1409.13970  0.04%     -   26s
     0     0 1409.13970    0   43 1408.58463 1409.13970  0.04%     -   27s
     0     0 1409.13970    0   34 1408.58463 1409.13970  0.04%     -   28s
     0     0 1409.13970    0   33 1408.58463 1409.13970  0.04%     -   29s
     0     0 1409.13970    0   36 1408.58463 1409.13970  0.04%     -   29s
     0     0 1409.13970    0   33 1408.58463 1409.13970  0.04%     -   30s
     0     0 1409.13970    0   33 1408.58463 1409.13970  0.04%     -   30s
     0     0 1409.13970    0   33 1408.58463 1409.13970  0.04%     -   31s
     0     0 1409.13970    0   36 1408.58463 1409.13970  0.04%     -   31s
     0     0 1409.13970    0   36 1408.58463 1409.13970  0.04%     -   32s
     0     0 1409.13970    0   36 1408.58463 1409.13970  0.04%     -   33s
     0     2 1409.13970    0   36 1408.58463 1409.13970  0.04%     -   35s
    41    41 1409.12527   20   34 1408.58463 1409.12813  0.04%  19.8   40s
   110   110 1409.11927   43   34 1408.58463 1409.12813  0.04%   8.4   45s
   187   186 1409.11148   70   34 1408.58463 1409.12813  0.04%   6.0   56s
H  188   187                    1408.6548982 1409.12813  0.03%   5.9   56s

Cutting planes:
  Cover: 2
  MIR: 19

Explored 189 nodes (20183 simplex iterations) in 56.40 seconds
Thread count was 4 (of 4 available processors)

Optimal solution found (tolerance 1.00e-04)
Best objective 1.408654898198e+03, best bound 1.409128126092e+03, gap 0.0336%

Gurobi 6.5.0 (linux64) logging started Thu May 12 01:05:04 2016

Changed value of parameter MIPGapAbs to 0.5
   Prev: 1e-10  Min: 0.0  Max: 1e+100  Default: 1e-10
Optimize a model with 50387 rows, 404875 columns and 465071 nonzeros
Coefficient statistics:
  Matrix range    [5e-05, 2e+00]
  Objective range [1e+00, 2e+02]
  Bounds range    [1e+00, 1e+00]
  RHS range       [2e-01, 1e+00]
Presolve removed 43353 rows and 241151 columns (presolve time = 5s) ...
Presolve removed 43836 rows and 241676 columns
Presolve time: 7.91s
Presolved: 6551 rows, 163199 columns, 326365 nonzeros
Variable types: 5517 continuous, 157682 integer (157682 binary)
Found heuristic solution: objective 697.1909636

Root simplex log...

Iteration    Objective       Primal Inf.    Dual Inf.      Time
       0    2.8479770e+03   5.184933e+03   0.000000e+00     10s
    9360    1.8758842e+03   2.155653e+04   0.000000e+00     10s
   15869    1.0484516e+03   0.000000e+00   0.000000e+00     11s

Root relaxation: objective 1.048452e+03, 15869 iterations, 1.47 seconds

    Nodes    |    Current Node    |     Objective Bounds      |     Work
 Expl Unexpl |  Obj  Depth IntInf | Incumbent    BestBd   Gap | It/Node Time

     0     0 1048.45158    0   22  697.19096 1048.45158  50.4%     -   11s
H    0     0                     970.2611080 1048.45158  8.06%     -   11s
H    0     0                    1041.1993539 1048.45158  0.70%     -   18s
     0     0 1045.51248    0   36 1041.19935 1045.51248  0.41%     -   19s
     0     0 1045.43947    0   43 1041.19935 1045.43947  0.41%     -   21s
     0     0 1045.43947    0   43 1041.19935 1045.43947  0.41%     -   22s
     0     0 1045.42539    0   43 1041.19935 1045.42539  0.41%     -   23s
     0     0 1045.40806    0   43 1041.19935 1045.40806  0.40%     -   24s
     0     0 1045.37225    0   47 1041.19935 1045.37225  0.40%     -   25s
     0     0 1045.36338    0   56 1041.19935 1045.36338  0.40%     -   25s
     0     0 1045.25613    0   60 1041.19935 1045.25613  0.39%     -   26s
     0     0 1045.23216    0   61 1041.19935 1045.23216  0.39%     -   26s
     0     0 1045.22459    0   65 1041.19935 1045.22459  0.39%     -   27s
     0     0 1045.21646    0   71 1041.19935 1045.21646  0.39%     -   28s
     0     0 1045.20113    0   70 1041.19935 1045.20113  0.38%     -   28s
     0     0 1045.20030    0   77 1041.19935 1045.20030  0.38%     -   29s
     0     0 1045.19902    0   76 1041.19935 1045.19902  0.38%     -   30s
     0     0 1045.19696    0   81 1041.19935 1045.19696  0.38%     -   30s
     0     0 1045.18699    0   77 1041.19935 1045.18699  0.38%     -   32s
     0     0 1045.18095    0   80 1041.19935 1045.18095  0.38%     -   32s
     0     0 1045.17865    0   92 1041.19935 1045.17865  0.38%     -   33s
     0     0 1045.17689    0   94 1041.19935 1045.17689  0.38%     -   33s
     0     0 1045.17251    0  100 1041.19935 1045.17251  0.38%     -   34s
     0     0 1045.17232    0   96 1041.19935 1045.17232  0.38%     -   35s
     0     0 1045.16955    0  100 1041.19935 1045.16955  0.38%     -   36s
     0     0 1045.16848    0  104 1041.19935 1045.16848  0.38%     -   36s
     0     0 1045.16645    0   90 1041.19935 1045.16645  0.38%     -   37s
     0     0 1045.16611    0   91 1041.19935 1045.16611  0.38%     -   38s
     0     0 1045.16457    0   89 1041.19935 1045.16457  0.38%     -   38s
     0     0 1045.16349    0   95 1041.19935 1045.16349  0.38%     -   39s
     0     0 1045.16292    0  102 1041.19935 1045.16292  0.38%     -   40s
     0     0 1045.16227    0  100 1041.19935 1045.16227  0.38%     -   40s
     0     0 1045.16158    0   97 1041.19935 1045.16158  0.38%     -   41s
     0     0 1042.52640    0   41 1041.19935 1042.52640  0.13%     -   44s
     0     0 1042.52640    0   41 1041.19935 1042.52640  0.13%     -   44s
H    0     0                    1041.7768051 1042.52640  0.07%     -   53s
     0     2 1042.37823    0   38 1041.77681 1042.37823  0.06%     -   54s
     2     4 1042.20072    2   26 1041.77681 1042.29259  0.05%  61.0   55s

Cutting planes:
  MIR: 47

Explored 7 nodes (20210 simplex iterations) in 55.34 seconds
Thread count was 4 (of 4 available processors)

Optimal solution found (tolerance 1.00e-04)
Best objective 1.041776805078e+03, best bound 1.042200718695e+03, gap 0.0407%
